50 1648
924 264 726 968 726 660 968 363 1188 132 132 1320 242 484 660 605 396 726 363 242 363 1210 484 605 1056 121 363 363 242 121 121 528 528 132 1320 924 847 132 132 660 847 847 924 605 528 1210 484 121 242 132 
784 224 606 808 606 560 808 303 1008 112 112 1120 202 404 560 505 336 606 303 202 303 1010 404 505 896 101 303 303 202 101 101 448 448 112 1120 784 707 112 112 560 707 707 784 505 448 1010 404 101 202 112 
